
Gurobi 9.0.2 (win64) logging started Tue Sep  8 15:14:46 2020

Academic license - for non-commercial use only

Gurobi 9.0.2 (win64) logging started Tue Sep  8 15:35:51 2020

Academic license - for non-commercial use only

Gurobi 9.0.2 (win64) logging started Tue Sep  8 15:35:56 2020

Academic license - for non-commercial use only

Gurobi 9.0.2 (win64) logging started Tue Sep  8 15:40:11 2020

Academic license - for non-commercial use only

Gurobi 9.0.2 (win64) logging started Tue Sep  8 15:40:17 2020

Academic license - for non-commercial use only

Gurobi 9.0.2 (win64) logging started Tue Sep  8 15:46:35 2020

Academic license - for non-commercial use only

Gurobi 9.0.2 (win64) logging started Tue Sep  8 15:46:42 2020

Academic license - for non-commercial use only

Gurobi 9.0.2 (win64) logging started Tue Sep  8 17:23:07 2020

Academic license - for non-commercial use only

Gurobi 9.0.2 (win64) logging started Tue Sep  8 17:23:13 2020

Academic license - for non-commercial use only

Gurobi 9.0.2 (win64) logging started Tue Sep  8 17:27:32 2020

Academic license - for non-commercial use only

Gurobi 9.0.2 (win64) logging started Tue Sep  8 17:27:37 2020

Academic license - for non-commercial use only

Gurobi 9.0.2 (win64) logging started Tue Sep  8 17:33:15 2020

Academic license - for non-commercial use only

Gurobi 9.0.2 (win64) logging started Tue Sep  8 17:33:21 2020

Academic license - for non-commercial use only

Gurobi 9.0.2 (win64) logging started Tue Sep  8 17:35:54 2020

Academic license - for non-commercial use only

Gurobi 9.0.2 (win64) logging started Tue Sep  8 17:35:59 2020

Academic license - for non-commercial use only

Gurobi 9.0.2 (win64) logging started Tue Sep  8 22:14:35 2020

Academic license - for non-commercial use only

Gurobi 9.0.2 (win64) logging started Tue Sep  8 22:14:40 2020

Academic license - for non-commercial use only

Gurobi 9.0.2 (win64) logging started Tue Sep  8 22:14:51 2020

Academic license - for non-commercial use only

Gurobi 9.0.2 (win64) logging started Tue Sep  8 22:15:04 2020

Academic license - for non-commercial use only

Gurobi 9.0.2 (win64) logging started Tue Sep  8 22:15:10 2020

Academic license - for non-commercial use only

Gurobi 9.0.2 (win64) logging started Tue Sep  8 22:15:28 2020

Academic license - for non-commercial use only

Gurobi 9.0.2 (win64) logging started Tue Sep  8 22:32:59 2020

Academic license - for non-commercial use only

Gurobi 9.0.2 (win64) logging started Tue Sep  8 22:33:04 2020

Academic license - for non-commercial use only

Gurobi 9.0.2 (win64) logging started Tue Sep  8 22:33:16 2020

Academic license - for non-commercial use only

Gurobi 9.0.2 (win64) logging started Tue Sep  8 22:33:22 2020

Academic license - for non-commercial use only

Gurobi 9.0.2 (win64) logging started Tue Sep  8 22:33:31 2020

Academic license - for non-commercial use only

Gurobi 9.0.2 (win64) logging started Tue Sep  8 22:33:38 2020

Academic license - for non-commercial use only

Gurobi 9.0.2 (win64) logging started Tue Sep  8 22:33:44 2020

Academic license - for non-commercial use only

Gurobi 9.0.2 (win64) logging started Tue Sep  8 22:33:57 2020

Academic license - for non-commercial use only

Gurobi 9.0.2 (win64) logging started Tue Sep  8 22:37:29 2020

Academic license - for non-commercial use only

Gurobi 9.0.2 (win64) logging started Tue Sep  8 22:37:35 2020

Academic license - for non-commercial use only

Gurobi 9.0.2 (win64) logging started Tue Sep  8 22:37:46 2020

Academic license - for non-commercial use only

Gurobi 9.0.2 (win64) logging started Tue Sep  8 22:37:57 2020

Academic license - for non-commercial use only

Gurobi 9.0.2 (win64) logging started Tue Sep  8 22:38:07 2020

Academic license - for non-commercial use only

Gurobi 9.0.2 (win64) logging started Tue Sep  8 22:38:13 2020

Academic license - for non-commercial use only

Gurobi 9.0.2 (win64) logging started Tue Sep  8 22:38:19 2020

Academic license - for non-commercial use only

Gurobi 9.0.2 (win64) logging started Tue Sep  8 22:38:31 2020

Academic license - for non-commercial use only

Gurobi 9.0.2 (win64) logging started Wed Sep  9 14:49:12 2020

Academic license - for non-commercial use only

Gurobi 9.0.2 (win64) logging started Wed Sep  9 14:50:37 2020

Academic license - for non-commercial use only

Gurobi 9.0.2 (win64) logging started Wed Sep  9 14:54:31 2020

Academic license - for non-commercial use only

Gurobi 9.0.2 (win64) logging started Wed Sep  9 14:55:46 2020

Academic license - for non-commercial use only

Gurobi 9.0.2 (win64) logging started Wed Sep  9 14:59:17 2020

Academic license - for non-commercial use only

Gurobi 9.0.2 (win64) logging started Wed Sep  9 14:59:52 2020

Academic license - for non-commercial use only

Gurobi 9.0.2 (win64) logging started Wed Sep  9 15:10:48 2020

Academic license - for non-commercial use only

Gurobi 9.0.2 (win64) logging started Wed Sep  9 15:12:14 2020

Academic license - for non-commercial use only

Gurobi 9.0.2 (win64) logging started Wed Sep  9 15:16:08 2020

Academic license - for non-commercial use only

Gurobi 9.0.2 (win64) logging started Wed Sep  9 15:17:44 2020

Academic license - for non-commercial use only

Gurobi 9.0.2 (win64) logging started Wed Sep  9 15:21:13 2020

Academic license - for non-commercial use only

Gurobi 9.0.2 (win64) logging started Wed Sep  9 15:23:56 2020

Academic license - for non-commercial use only

Gurobi 9.0.2 (win64) logging started Wed Sep  9 15:24:31 2020

Academic license - for non-commercial use only

Gurobi 9.0.2 (win64) logging started Wed Sep  9 15:25:58 2020

Academic license - for non-commercial use only

Gurobi 9.0.2 (win64) logging started Wed Sep  9 15:29:52 2020

Academic license - for non-commercial use only

Gurobi 9.0.2 (win64) logging started Wed Sep  9 15:31:07 2020

Academic license - for non-commercial use only

Gurobi 9.0.2 (win64) logging started Wed Sep  9 15:34:29 2020

Academic license - for non-commercial use only

Gurobi 9.0.2 (win64) logging started Wed Sep  9 15:39:05 2020

Academic license - for non-commercial use only

Gurobi 9.0.2 (win64) logging started Wed Sep  9 15:39:37 2020

Academic license - for non-commercial use only

Gurobi 9.0.2 (win64) logging started Wed Sep  9 15:57:05 2020

Academic license - for non-commercial use only

Gurobi 9.0.2 (win64) logging started Wed Sep  9 16:28:03 2020

Academic license - for non-commercial use only

Gurobi 9.0.2 (win64) logging started Wed Sep  9 16:28:15 2020

Academic license - for non-commercial use only

Gurobi 9.0.2 (win64) logging started Wed Sep  9 17:13:08 2020

Academic license - for non-commercial use only

Gurobi 9.0.2 (win64) logging started Wed Sep  9 17:44:08 2020

Academic license - for non-commercial use only

Gurobi 9.0.2 (win64) logging started Wed Sep  9 18:44:24 2020

Academic license - for non-commercial use only

Gurobi 9.0.2 (win64) logging started Wed Sep  9 19:44:48 2020

Academic license - for non-commercial use only

Gurobi 9.0.2 (win64) logging started Wed Sep  9 20:26:00 2020

Academic license - for non-commercial use only

Gurobi 9.0.2 (win64) logging started Wed Sep  9 21:14:43 2020

Academic license - for non-commercial use only

Gurobi 9.0.2 (win64) logging started Wed Sep  9 21:53:25 2020

Academic license - for non-commercial use only

Gurobi 9.0.2 (win64) logging started Wed Sep  9 22:32:46 2020

Academic license - for non-commercial use only
